(set-info :smt-lib-version 2.6)
(set-logic QF_LIA)
(set-info :category "industrial")
(set-info :status sat)
(declare-fun x0 () Int)
(declare-fun x1 () Int)
(declare-fun x10 () Int)
(declare-fun x11 () Int)
(declare-fun x12 () Int)
(declare-fun x13 () Int)
(declare-fun x14 () Int)
(declare-fun x15 () Int)
(declare-fun x16 () Int)
(declare-fun x17 () Int)
(declare-fun x18 () Int)
(declare-fun x19 () Int)
(declare-fun x2 () Int)
(declare-fun x20 () Int)
(declare-fun x21 () Int)
(declare-fun x22 () Int)
(declare-fun x23 () Int)
(declare-fun x24 () Int)
(declare-fun x25 () Int)
(declare-fun x26 () Int)
(declare-fun x27 () Int)
(declare-fun x28 () Int)
(declare-fun x29 () Int)
(declare-fun x3 () Int)
(declare-fun x30 () Int)
(declare-fun x31 () Int)
(declare-fun x32 () Int)
(declare-fun x33 () Int)
(declare-fun x34 () Int)
(declare-fun x35 () Int)
(declare-fun x36 () Int)
(declare-fun x37 () Int)
(declare-fun x38 () Int)
(declare-fun x39 () Int)
(declare-fun x4 () Int)
(declare-fun x40 () Int)
(declare-fun x41 () Int)
(declare-fun x42 () Int)
(declare-fun x43 () Int)
(declare-fun x44 () Int)
(declare-fun x5 () Int)
(declare-fun x6 () Int)
(declare-fun x7 () Int)
(declare-fun x8 () Int)
(declare-fun x9 () Int)
(assert (let ((?v_7 (* 0 x11)) (?v_9 (* 0 x13)) (?v_3 (* 0 x23)) (?v_109 (* 1 x12)) (?v_19 (* 0 x24)) (?v_20 (* 0 x26)) (?v_13 (* 0 x34)) (?v_4 (* 0 x8)) (?v_32 (* 1 x29)) (?v_44 (* 1 x3)) (?v_43 (* 1 x35)) (?v_45 (* 0 x38)) (?v_55 (* 1 x39)) (?v_62 (* 1 x4)) (?v_105 (* 1 x15)) (?v_24 (* 1 x7)) (?v_5 (* 1 x9))) (let ((?v_106 (+ ?v_24 ?v_5)) (?v_73 (* 0 x0)) (?v_8 (* 0 x12)) (?v_39 (* 0 x16)) (?v_10 (* 0 x17)) (?v_17 (* 0 x2)) (?v_21 (* 0 x29)) (?v_11 (* 0 x3)) (?v_42 (* 1 x31)) (?v_12 (* 0 x33)) (?v_14 (* 0 x35)) (?v_29 (* 0 x39)) (?v_23 (* 0 x42)) (?v_15 (* 0 x5)) (?v_16 (* 0 x7)) (?v_35 (* 1 x21)) (?v_139 (* 1 x24)) (?v_71 (* 1 x44)) (?v_40 (* 0 x19)) (?v_18 (* 0 x20)) (?v_88 (* 2 x22)) (?v_50 (* 0 x25)) (?v_31 (* 1 x26)) (?v_28 (* 0 x31)) (?v_22 (* 0 x36)) (?v_56 (* 0 x4)) (?v_69 (* 0 x9)) (?v_90 (* 1 x38)) (?v_57 (* 0 x40)) (?v_38 (* 0 x14)) (?v_26 (* 1 x16)) (?v_75 (* 1 x18)) (?v_68 (* 1 x28)) (?v_51 (* 0 x30)) (?v_33 (* 1 x37)) (?v_30 (* 0 x41)) (?v_85 (* 0 x44)) (?v_58 (* 1 x43)) (?v_130 (* 1 x6)) (?v_37 (* 0 x10)) (?v_59 (* 1 x13)) (?v_49 (* 0 x22)) (?v_52 (* 0 x32)) (?v_53 (* 1 x34)) (?v_72 (* 0 x6)) (?v_116 (* 1 x40)) (?v_86 (* 2 x7)) (?v_46 (* 1 x0)) (?v_121 (* 1 x11)) (?v_118 (* 1 x23)) (?v_77 (* 1 x25)) (?v_94 (* 1 x27)) (?v_84 (* 0 x15)) (?v_54 (* 0 x37)) (?v_131 (* 1 x10)) (?v_87 (* 1 x20)) (?v_78 (* 0 x28)) (?v_83 (* 0 x1)) (?v_81 (* 1 x14)) (?v_98 (* 0 x21)) (?v_89 (* 1 x33)) (?v_70 (* 1 x36)) (?v_117 (* 1 x42)) (?v_110 (* 1 x8))) (let ((?v_134 (+ ?v_110 ?v_5)) (?v_99 (* 1 x5)) (?v_95 (* 1 x41)) (?v_104 (* 0 x43)) (?v_103 (* 1 x32)) (?v_92 (* 1 x2)) (?v_113 (* 0 x18)) (?v_132 (* 1 x19)) (?v_120 (* 2 x31)) (?v_115 (* 0 x27)) (?v_133 (* 2 x38)) (?v_129 (* 1 x22)) (?v_127 (* 1 x30)) (?v_126 (* 1 x1)) (?v_135 (* 1 x17)) (?v_0 (* (- 1) x10)) (?v_1 (* (- 1) x20)) (?v_2 (* (- 1) x28)) (?v_27 (* (- 1) x36)) (?v_136 (* (- 2) x40)) (?v_6 (* (- 1) x1)) (?v_60 (* (- 1) x18)) (?v_41 (* (- 1) x26)) (?v_65 (* (- 1) x32)) (?v_36 (* (- 2) x18)) (?v_93 (* (- 1) x24)) (?v_100 (* (- 1) x29)) (?v_140 (* (- 1) x37)) (?v_25 (* (- 1) x0)) (?v_63 (* (- 1) x19)) (?v_61 (* (- 1) x3)) (?v_34 (* (- 1) x38)) (?v_48 (* (- 1) x15)) (?v_74 (* (- 1) x17)) (?v_128 (* (- 1) x25)) (?v_82 (* (- 1) x27)) (?v_66 (* (- 1) x4)) (?v_96 (* (- 1) x43)) (?v_112 (* (- 1) x2)) (?v_114 (* (- 1) x21)) (?v_108 (* (- 1) x44)) (?v_76 (* (- 1) x33)) (?v_97 (* (- 1) x7)) (?v_47 (* (- 1) x9)) (?v_91 (* (- 1) x11)) (?v_64 (* (- 1) x23)) (?v_79 (* (- 1) x6)) (?v_80 (* (- 1) x12)) (?v_124 (* (- 1) x39)) (?v_67 (* (- 1) x41)) (?v_107 (* (- 1) x42)) (?v_125 (* (- 1) x40)) (?v_119 (* (- 2) x23)) (?v_102 (* (- 1) x34)) (?v_138 (* (- 1) x8)) (?v_111 (* (- 1) x13)) (?v_101 (* (- 1) x30)) (?v_123 (* (- 1) x31)) (?v_122 (* (- 1) x22)) (?v_137 (* (- 1) x5))) (and (<= (+ ?v_7 (+ (* (- 2) x2) (+ (* (- 2) x31) (+ ?v_0 (+ ?v_1 (+ ?v_2 (+ ?v_27 (+ ?v_9 (+ ?v_3 (+ ?v_109 (+ (* 2 x18) (+ ?v_19 (+ (* 2 x25) (+ ?v_20 (+ ?v_13 (+ ?v_4 (+ ?v_32 (+ ?v_44 (+ ?v_43 (+ ?v_45 (+ ?v_55 (+ ?v_62 (+ ?v_136 (+ ?v_105 ?v_106)))))))))))))))))))))))) 0) (<= (+ (* (- 2) x34) (+ ?v_73 (+ ?v_6 (+ ?v_0 (+ ?v_60 (+ ?v_1 (+ ?v_41 (+ ?v_2 (+ ?v_65 (+ ?v_8 (+ ?v_39 (+ ?v_10 (+ ?v_17 (+ ?v_3 (+ (* 2 x27) (+ ?v_21 (+ ?v_11 (+ ?v_42 (+ ?v_12 (+ ?v_14 (+ ?v_29 (+ ?v_23 (+ ?v_15 (+ ?v_16 (+ ?v_4 (+ ?v_35 (+ ?v_139 (+ ?v_71 ?v_5)))))))))))))))))))))))))))) 0) (<= (+ ?v_36 (+ (* (- 2) x27) (+ ?v_6 (+ ?v_7 (+ (* (- 1) x16) (+ ?v_8 (+ ?v_9 (+ ?v_10 (+ ?v_40 (+ ?v_18 (+ ?v_88 (+ ?v_93 (+ ?v_2 (+ ?v_50 (+ ?v_31 (+ ?v_100 (+ ?v_140 (+ ?v_11 (+ ?v_28 (+ ?v_12 (+ ?v_13 (+ ?v_14 (+ ?v_22 (+ ?v_56 (+ ?v_15 (+ ?v_16 (+ ?v_4 (+ ?v_69 (+ ?v_90 ?v_57))))))))))))))))))))))))))))) 1) (<= (+ ?v_25 (+ ?v_6 (+ ?v_7 (+ ?v_63 (+ ?v_9 (+ ?v_38 (+ ?v_26 (+ ?v_10 (+ ?v_75 (+ ?v_17 (+ ?v_18 (+ ?v_3 (+ ?v_61 (+ ?v_19 (+ ?v_20 (+ ?v_68 (+ ?v_21 (+ ?v_51 (+ ?v_13 (+ ?v_14 (+ ?v_22 (+ ?v_33 (+ ?v_34 (+ ?v_30 (+ ?v_23 (+ ?v_85 (+ ?v_15 (+ ?v_58 (+ ?v_130 ?v_24))))))))))))))))))))))))))))) 0) (<= (+ ?v_25 (+ ?v_6 (+ ?v_37 (+ ?v_8 (+ ?v_59 (+ ?v_48 (+ ?v_26 (+ ?v_74 (+ ?v_18 (+ ?v_49 (+ ?v_128 (+ ?v_82 (+ ?v_27 (+ ?v_66 (+ ?v_19 (+ ?v_28 (+ ?v_52 (+ ?v_12 (+ ?v_29 (+ ?v_30 (+ ?v_31 (+ ?v_32 (+ ?v_53 (+ ?v_33 (+ (* 2 x3) (+ ?v_34 (+ ?v_96 (+ ?v_72 (+ ?v_35 (+ ?v_116 (+ ?v_86 ?v_5))))))))))))))))))))))))))))))) 1) (<= (+ ?v_36 (+ ?v_46 (+ ?v_6 (+ ?v_112 (+ ?v_37 (+ ?v_121 (+ ?v_38 (+ ?v_39 (+ ?v_40 (+ ?v_18 (+ ?v_114 (+ ?v_118 (+ ?v_77 (+ ?v_41 (+ ?v_2 (+ ?v_108 (+ ?v_94 (+ ?v_42 (+ ?v_76 (+ ?v_13 (+ ?v_43 (+ ?v_97 (+ ?v_47 (+ ?v_84 (+ ?v_54 (+ ?v_32 (+ ?v_44 (+ ?v_45 (* 2 x8))))))))))))))))))))))))))))) 0) (<= (+ ?v_91 (+ ?v_64 (+ ?v_46 (+ ?v_41 (+ ?v_47 (+ ?v_131 (+ ?v_8 (+ ?v_9 (+ ?v_48 (+ ?v_40 (+ ?v_49 (+ ?v_87 (+ (* 2 x16) (+ ?v_19 (+ ?v_50 (+ ?v_78 (+ ?v_51 (+ ?v_52 (+ ?v_4 (+ ?v_53 (+ ?v_43 (+ ?v_54 (+ ?v_45 (+ ?v_55 (+ ?v_56 (+ ?v_57 (+ ?v_58 (+ ?v_79 ?v_83)))))))))))))))))))))))))))) 0) (<= (+ (* (- 2) x44) (+ ?v_46 (+ ?v_37 (+ ?v_80 (+ ?v_59 (+ ?v_81 (+ (* (- 2) x6) (+ ?v_48 (+ ?v_60 (+ ?v_26 (+ ?v_10 (+ ?v_61 (+ ?v_124 (+ ?v_67 (+ ?v_98 (+ ?v_49 (+ ?v_19 (+ ?v_21 (+ ?v_51 (+ ?v_52 (+ ?v_15 (+ ?v_42 (+ ?v_89 (+ ?v_53 (+ ?v_70 (+ ?v_62 (+ ?v_117 ?v_134))))))))))))))))))))))))))) 1) (<= (+ ?v_60 (+ ?v_63 (+ ?v_64 (+ ?v_107 (+ ?v_37 (+ ?v_39 (+ ?v_17 (+ ?v_49 (+ ?v_59 (+ ?v_61 (+ ?v_65 (+ ?v_66 (+ ?v_67 (+ ?v_19 (+ ?v_68 (+ ?v_12 (+ ?v_14 (+ ?v_31 (+ ?v_54 (+ ?v_29 (+ ?v_16 (+ ?v_69 (+ ?v_32 (+ ?v_70 (+ ?v_125 (+ ?v_58 (+ ?v_71 (+ ?v_99 ?v_72)))))))))))))))))))))))))))) (- 1)) (<= (+ ?v_73 (+ ?v_38 (+ ?v_74 (+ ?v_40 (+ ?v_75 (+ ?v_65 (+ ?v_18 (+ ?v_49 (+ ?v_76 (+ ?v_27 (+ ?v_9 (+ ?v_19 (+ ?v_77 (+ ?v_20 (+ ?v_78 (+ ?v_14 (+ ?v_29 (+ ?v_4 (+ ?v_32 (+ ?v_44 (+ ?v_42 (+ ?v_95 (+ ?v_104 (+ ?v_79 ?v_35)))))))))))))))))))))))) 0) (<= (+ ?v_119 (+ ?v_25 (+ ?v_0 (+ ?v_80 (+ ?v_2 (+ ?v_81 (+ ?v_82 (+ ?v_102 (+ ?v_138 (+ ?v_47 (+ ?v_83 (+ ?v_9 (+ ?v_84 (+ ?v_10 (+ ?v_40 (+ ?v_18 (+ ?v_20 (+ ?v_11 (+ ?v_14 (+ ?v_103 (+ ?v_29 (+ ?v_30 (+ ?v_23 (+ ?v_85 (+ ?v_15 (+ ?v_70 (+ ?v_56 ?v_86))))))))))))))))))))))))))) 0) (<= (+ (* (- 2) x28) (+ ?v_0 (+ ?v_7 (+ (* (- 1) x14) (+ ?v_74 (+ ?v_82 (+ ?v_83 (+ ?v_84 (+ ?v_40 (+ ?v_3 (+ ?v_51 (+ ?v_15 (+ ?v_26 (+ ?v_75 (+ ?v_92 (+ ?v_87 (+ ?v_88 (+ ?v_50 (+ ?v_21 (+ ?v_28 (+ ?v_13 (+ ?v_89 (+ ?v_54 (+ ?v_23 (+ ?v_69 (+ ?v_44 (+ ?v_90 (+ ?v_55 (+ ?v_71 ?v_72))))))))))))))))))))))))))))) 0) (<= (+ ?v_91 (+ ?v_73 (+ ?v_111 (+ ?v_1 (+ ?v_8 (+ ?v_39 (+ ?v_92 (+ ?v_93 (+ ?v_101 (+ ?v_50 (+ ?v_94 (+ ?v_42 (+ ?v_13 (+ ?v_29 (+ ?v_70 (+ ?v_66 (+ ?v_95 (+ ?v_96 (+ ?v_97 (+ ?v_83 (+ ?v_98 (+ ?v_44 (+ ?v_57 (+ ?v_85 (+ ?v_99 (+ ?v_4 ?v_5)))))))))))))))))))))))))) (- 1)) (<= (+ (* (- 2) x22) (+ (* (- 2) x37) (+ ?v_80 (+ ?v_1 (+ ?v_64 (+ ?v_10 (+ ?v_113 (+ ?v_132 (+ ?v_93 (+ ?v_82 (+ ?v_100 (+ ?v_101 (+ ?v_102 (+ ?v_79 (+ ?v_83 (+ ?v_98 (+ ?v_68 (+ ?v_11 (+ ?v_103 (+ ?v_120 (+ ?v_62 (+ ?v_57 (+ ?v_104 (+ ?v_105 (+ (* 2 x5) ?v_106))))))))))))))))))))))))) 0) (<= (+ (* (- 2) x19) (+ ?v_25 (+ ?v_74 (+ ?v_65 (+ ?v_27 (+ ?v_107 (+ ?v_108 (+ ?v_83 (+ ?v_7 (+ (* 2 x10) (+ ?v_9 (+ ?v_39 (+ ?v_109 (+ ?v_81 (+ ?v_19 (+ ?v_20 (+ ?v_115 (+ ?v_78 (+ ?v_21 (+ ?v_11 (+ ?v_51 (+ ?v_13 (+ ?v_54 (+ ?v_69 (+ ?v_35 (+ ?v_43 (+ ?v_62 (+ ?v_95 (+ ?v_110 ?v_133))))))))))))))))))))))))))))) 0) (<= (+ ?v_7 (+ ?v_80 (+ ?v_111 (+ ?v_112 (+ ?v_38 (+ ?v_39 (+ ?v_113 (+ ?v_87 (+ ?v_114 (+ ?v_3 (+ ?v_129 (+ ?v_20 (+ ?v_115 (+ ?v_100 (+ ?v_65 (+ ?v_42 (+ ?v_76 (+ ?v_55 (+ ?v_66 (+ ?v_67 (+ ?v_96 (+ ?v_83 (+ ?v_84 (+ ?v_16 (+ ?v_116 (+ ?v_117 ?v_72)))))))))))))))))))))))))) 0) (<= (+ ?v_25 (+ (* (- 2) x26) (+ ?v_123 (+ ?v_34 (+ ?v_107 (+ ?v_96 (+ ?v_79 (+ ?v_97 (+ ?v_83 (+ ?v_7 (+ ?v_8 (+ ?v_113 (+ ?v_49 (+ ?v_115 (+ ?v_78 (+ ?v_26 (+ ?v_10 (+ ?v_118 (+ (* 2 x19) (+ ?v_87 (+ ?v_21 (+ ?v_12 (+ ?v_85 (+ ?v_69 (+ ?v_105 (+ ?v_44 (+ ?v_127 (+ ?v_103 (+ ?v_53 (+ ?v_110 (* 2 x40))))))))))))))))))))))))))))))) 0) (<= (+ ?v_119 (+ ?v_63 (+ ?v_122 (+ (* (- 2) x9) (+ ?v_73 (+ ?v_7 (+ ?v_59 (+ ?v_34 (+ ?v_79 (+ ?v_97 (+ ?v_84 (+ ?v_39 (+ ?v_113 (+ ?v_17 (+ ?v_87 (+ ?v_94 (+ ?v_68 (+ ?v_11 (+ ?v_52 (+ ?v_14 (+ ?v_99 (+ ?v_120 (+ ?v_29 (+ ?v_56 ?v_126)))))))))))))))))))))))) 0) (<= (+ ?v_73 (+ ?v_0 (+ ?v_121 (+ ?v_38 (+ ?v_74 (+ ?v_122 (+ ?v_82 (+ ?v_2 (+ ?v_100 (+ ?v_123 (+ ?v_124 (+ ?v_8 (+ ?v_125 (+ ?v_79 (+ ?v_84 (+ ?v_19 (+ ?v_11 (+ ?v_52 (+ ?v_14 (+ ?v_22 (+ ?v_85 (+ ?v_16 (+ ?v_4 (+ ?v_126 (+ (* 2 x23) (+ ?v_31 (+ ?v_127 (+ (* 2 x33) (+ ?v_33 ?v_90))))))))))))))))))))))))))))) (- 1)) (<= (+ ?v_25 (+ ?v_7 (+ ?v_38 (+ ?v_128 (+ ?v_2 (+ ?v_123 (+ ?v_137 (+ ?v_84 (+ ?v_113 (+ ?v_40 (+ ?v_17 (+ ?v_115 (+ ?v_13 (+ ?v_14 (+ ?v_29 (+ ?v_85 (+ ?v_16 (+ ?v_135 (+ ?v_129 (+ (* 2 x20) (+ ?v_21 (+ ?v_44 (+ ?v_127 (+ ?v_70 (+ ?v_33 ?v_130))))))))))))))))))))))))) 0) (<= (+ ?v_38 (+ ?v_1 (+ (* (- 2) x25) (+ ?v_123 (+ ?v_108 (+ ?v_131 (+ ?v_125 (+ ?v_84 (+ ?v_113 (+ ?v_132 (+ ?v_17 (+ ?v_19 (+ ?v_20 (+ ?v_94 (+ ?v_68 (+ ?v_54 (+ ?v_44 (+ (* 2 x34) (+ ?v_62 (+ ?v_133 (+ ?v_104 (+ ?v_72 (+ ?v_24 ?v_134))))))))))))))))))))))) 0) (<= (+ (* (- 1) x35) (+ ?v_131 (+ ?v_121 (+ ?v_8 (+ ?v_40 (+ ?v_18 (+ ?v_59 (+ ?v_135 (+ ?v_92 (+ ?v_34 (+ ?v_136 (+ ?v_98 (+ ?v_3 (+ ?v_19 (+ ?v_115 (+ ?v_11 (+ ?v_51 (+ ?v_13 (+ ?v_30 (+ ?v_85 (+ ?v_4 (+ ?v_69 (+ ?v_126 (+ ?v_77 (+ ?v_31 (+ ?v_33 (+ ?v_55 (+ ?v_62 (+ ?v_58 ?v_99))))))))))))))))))))))))))))) 1) (<= (+ ?v_25 (+ ?v_121 (+ ?v_80 (+ (* 2 x14) (+ ?v_39 (+ ?v_10 (+ ?v_113 (+ ?v_92 (+ ?v_49 (+ ?v_118 (+ ?v_50 (+ ?v_59 (+ ?v_68 (+ ?v_100 (+ ?v_51 (+ ?v_103 (+ ?v_76 (+ ?v_13 (+ ?v_43 (+ ?v_27 (+ ?v_29 (+ ?v_33 (+ ?v_34 (+ ?v_125 (+ ?v_137 (+ ?v_79 (+ ?v_138 (+ ?v_98 (+ ?v_30 (+ ?v_23 (+ ?v_85 (+ ?v_16 (+ ?v_126 (+ ?v_139 ?v_5)))))))))))))))))))))))))))))))))) 1) (<= (+ (* (- 3) x42) (+ ?v_91 (+ ?v_37 (+ ?v_111 (+ ?v_64 (+ ?v_2 (+ ?v_108 (+ ?v_38 (+ ?v_40 (+ ?v_75 (+ ?v_76 (+ ?v_140 (+ ?v_8 (+ ?v_19 (+ ?v_50 (+ ?v_20 (+ ?v_115 (+ ?v_21 (+ ?v_127 (+ ?v_28 (+ ?v_103 (+ ?v_43 (+ ?v_22 (+ ?v_30 (+ ?v_15 (+ ?v_16 (+ ?v_35 (+ ?v_53 (+ ?v_62 ?v_110))))))))))))))))))))))))))))) (- 1)) (<= (+ ?v_7 (+ ?v_63 (+ ?v_82 (+ ?v_101 (+ ?v_73 (+ ?v_39 (+ ?v_17 (+ ?v_18 (+ ?v_59 (+ ?v_81 (+ ?v_34 (+ ?v_98 (+ ?v_3 (+ ?v_19 (+ ?v_21 (+ ?v_11 (+ ?v_103 (+ ?v_53 (+ ?v_22 (+ ?v_54 (+ (* 2 x39) (+ ?v_56 (+ ?v_57 (+ ?v_30 (+ ?v_104 (+ ?v_16 (+ ?v_69 (+ ?v_126 (+ ?v_105 (+ ?v_117 (+ ?v_71 ?v_110))))))))))))))))))))))))))))))) (- 1)))))))
(check-sat)
(exit)
